p edge 200 1990
e 1 7
e 1 11
e 1 12
e 1 16
e 1 19
e 1 27
e 1 34
e 1 40
e 1 61
e 1 63
e 1 69
e 1 76
e 1 80
e 1 84
e 1 100
e 1 109
e 1 110
e 1 117
e 1 118
e 1 122
e 1 124
e 1 133
e 1 135
e 1 137
e 1 163
e 1 169
e 1 180
e 2 4
e 2 13
e 2 19
e 2 60
e 2 110
e 2 115
e 2 127
e 2 130
e 2 134
e 2 154
e 2 162
e 2 174
e 2 186
e 2 190
e 2 193
e 3 10
e 3 17
e 3 27
e 3 31
e 3 32
e 3 37
e 3 38
e 3 74
e 3 81
e 3 88
e 3 92
e 3 94
e 3 96
e 3 106
e 3 109
e 3 127
e 3 143
e 3 145
e 3 169
e 3 178
e 4 5
e 4 9
e 4 35
e 4 81
e 4 99
e 4 104
e 4 118
e 4 133
e 4 134
e 4 144
e 4 190
e 5 15
e 5 21
e 5 23
e 5 26
e 5 36
e 5 52
e 5 59
e 5 89
e 5 100
e 5 108
e 5 123
e 5 125
e 5 133
e 5 150
e 5 159
e 5 162
e 5 189
e 6 8
e 6 12
e 6 14
e 6 26
e 6 36
e 6 59
e 6 65
e 6 120
e 6 129
e 6 131
e 6 143
e 6 154
e 6 156
e 6 162
e 6 163
e 6 185
e 6 186
e 7 20
e 7 39
e 7 49
e 7 72
e 7 78
e 7 80
e 7 90
e 7 94
e 7 97
e 7 115
e 7 124
e 7 130
e 7 134
e 7 139
e 7 140
e 7 156
e 7 162
e 7 174
e 7 177
e 7 189
e 7 192
e 7 200
e 8 28
e 8 34
e 8 40
e 8 41
e 8 54
e 8 56
e 8 66
e 8 68
e 8 75
e 8 80
e 8 95
e 8 98
e 8 106
e 8 108
e 8 121
e 8 122
e 8 124
e 8 130
e 8 132
e 8 136
e 8 138
e 8 144
e 8 158
e 8 166
e 8 168
e 8 189
e 8 190
e 8 193
e 8 196
e 9 19
e 9 22
e 9 27
e 9 57
e 9 59
e 9 76
e 9 79
e 9 107
e 9 125
e 9 127
e 9 133
e 9 142
e 9 149
e 9 155
e 9 165
e 9 170
e 9 174
e 9 179
e 9 184
e 9 195
e 10 11
e 10 12
e 10 19
e 10 20
e 10 27
e 10 41
e 10 50
e 10 71
e 10 79
e 10 87
e 10 88
e 10 104
e 10 106
e 10 115
e 10 116
e 10 131
e 10 154
e 10 163
e 10 180
e 10 186
e 10 189
e 10 194
e 11 14
e 11 15
e 11 51
e 11 52
e 11 67
e 11 79
e 11 108
e 11 154
e 11 167
e 11 190
e 11 194
e 11 198
e 12 16
e 12 34
e 12 75
e 12 95
e 12 108
e 12 132
e 12 137
e 12 140
e 12 142
e 12 146
e 12 153
e 12 167
e 12 177
e 13 15
e 13 17
e 13 19
e 13 86
e 13 96
e 13 97
e 13 102
e 13 110
e 13 116
e 13 122
e 13 125
e 13 128
e 13 134
e 13 164
e 13 174
e 13 182
e 13 194
e 14 17
e 14 24
e 14 39
e 14 44
e 14 53
e 14 75
e 14 109
e 14 115
e 14 116
e 14 119
e 14 123
e 14 145
e 14 158
e 14 179
e 14 193
e 14 194
e 15 22
e 15 38
e 15 39
e 15 54
e 15 61
e 15 79
e 15 89
e 15 91
e 15 107
e 15 108
e 15 116
e 15 126
e 15 130
e 15 140
e 15 141
e 15 146
e 15 148
e 15 163
e 15 185
e 15 189
e 15 193
e 16 29
e 16 38
e 16 39
e 16 56
e 16 68
e 16 73
e 16 81
e 16 92
e 16 98
e 16 99
e 16 110
e 16 117
e 16 123
e 16 153
e 16 165
e 16 166
e 16 175
e 16 198
e 17 24
e 17 28
e 17 39
e 17 46
e 17 89
e 17 111
e 17 130
e 17 140
e 17 150
e 17 199
e 18 19
e 18 62
e 18 69
e 18 70
e 18 82
e 18 101
e 18 127
e 18 139
e 18 147
e 18 155
e 18 156
e 18 167
e 18 171
e 18 172
e 18 184
e 18 189
e 18 194
e 19 33
e 19 34
e 19 45
e 19 63
e 19 70
e 19 76
e 19 89
e 19 102
e 19 109
e 19 126
e 19 133
e 19 136
e 19 146
e 19 154
e 19 158
e 19 160
e 19 168
e 19 173
e 20 31
e 20 68
e 20 93
e 20 96
e 20 105
e 20 127
e 20 159
e 20 160
e 20 193
e 20 197
e 21 40
e 21 43
e 21 80
e 21 82
e 21 89
e 21 97
e 21 114
e 21 115
e 21 116
e 21 132
e 21 135
e 21 141
e 21 153
e 21 160
e 21 163
e 21 173
e 21 176
e 21 182
e 21 184
e 21 189
e 21 190
e 21 198
e 22 30
e 22 36
e 22 41
e 22 48
e 22 72
e 22 90
e 22 96
e 22 97
e 22 115
e 22 144
e 22 150
e 22 158
e 22 166
e 22 180
e 22 181
e 22 182
e 23 25
e 23 35
e 23 48
e 23 50
e 23 60
e 23 62
e 23 68
e 23 85
e 23 91
e 23 95
e 23 99
e 23 129
e 23 134
e 23 163
e 23 164
e 23 169
e 23 194
e 23 195
e 23 196
e 24 35
e 24 41
e 24 42
e 24 66
e 24 67
e 24 81
e 24 90
e 24 92
e 24 106
e 24 110
e 24 114
e 24 118
e 24 119
e 24 147
e 24 154
e 24 168
e 24 172
e 24 175
e 24 187
e 24 190
e 24 195
e 25 91
e 25 94
e 25 95
e 25 125
e 25 130
e 25 134
e 25 143
e 25 152
e 25 167
e 25 186
e 25 190
e 26 28
e 26 36
e 26 44
e 26 47
e 26 54
e 26 63
e 26 68
e 26 75
e 26 77
e 26 88
e 26 97
e 26 102
e 26 103
e 26 105
e 26 108
e 26 135
e 26 148
e 26 159
e 26 160
e 26 174
e 27 30
e 27 38
e 27 48
e 27 49
e 27 67
e 27 72
e 27 73
e 27 77
e 27 122
e 27 129
e 27 130
e 27 145
e 27 148
e 27 149
e 27 150
e 27 154
e 27 160
e 27 162
e 27 166
e 27 176
e 27 192
e 27 193
e 28 33
e 28 35
e 28 37
e 28 57
e 28 64
e 28 74
e 28 77
e 28 102
e 28 134
e 28 151
e 28 156
e 28 178
e 28 187
e 28 190
e 28 191
e 28 194
e 28 199
e 28 200
e 29 33
e 29 38
e 29 42
e 29 45
e 29 50
e 29 55
e 29 65
e 29 72
e 29 85
e 29 104
e 29 119
e 29 122
e 29 128
e 29 156
e 29 158
e 29 168
e 29 188
e 29 191
e 29 196
e 29 199
e 30 33
e 30 48
e 30 55
e 30 57
e 30 58
e 30 72
e 30 88
e 30 95
e 30 168
e 30 180
e 30 196
e 30 198
e 30 199
e 31 55
e 31 64
e 31 66
e 31 68
e 31 70
e 31 88
e 31 91
e 31 94
e 31 100
e 31 117
e 31 126
e 31 145
e 31 147
e 31 165
e 31 195
e 31 197
e 32 38
e 32 47
e 32 50
e 32 70
e 32 83
e 32 86
e 32 118
e 32 126
e 32 136
e 32 140
e 32 148
e 32 149
e 32 158
e 32 165
e 32 176
e 32 181
e 32 183
e 33 35
e 33 64
e 33 72
e 33 81
e 33 90
e 33 96
e 33 98
e 33 106
e 33 117
e 33 124
e 33 133
e 33 139
e 33 151
e 33 156
e 33 165
e 33 170
e 33 175
e 34 55
e 34 58
e 34 81
e 34 83
e 34 84
e 34 93
e 34 116
e 34 119
e 34 129
e 34 131
e 34 137
e 34 151
e 34 164
e 34 167
e 34 175
e 34 192
e 35 46
e 35 47
e 35 62
e 35 66
e 35 68
e 35 96
e 35 100
e 35 101
e 35 111
e 35 112
e 35 133
e 35 136
e 35 139
e 35 154
e 35 156
e 35 172
e 35 173
e 35 186
e 36 64
e 36 67
e 36 68
e 36 78
e 36 80
e 36 91
e 36 97
e 36 100
e 36 115
e 36 116
e 36 122
e 36 128
e 36 160
e 36 172
e 36 174
e 36 190
e 36 192
e 36 195
e 36 196
e 36 197
e 37 39
e 37 44
e 37 49
e 37 66
e 37 73
e 37 86
e 37 92
e 37 94
e 37 98
e 37 100
e 37 148
e 37 168
e 38 57
e 38 65
e 38 89
e 38 90
e 38 93
e 38 124
e 38 134
e 38 147
e 38 149
e 38 151
e 38 155
e 38 158
e 38 169
e 38 173
e 38 174
e 38 179
e 38 191
e 39 40
e 39 53
e 39 55
e 39 56
e 39 59
e 39 65
e 39 97
e 39 119
e 39 126
e 39 132
e 39 140
e 39 144
e 39 159
e 39 169
e 39 170
e 39 182
e 40 90
e 40 92
e 40 118
e 40 123
e 40 126
e 40 129
e 40 135
e 40 145
e 40 168
e 40 189
e 40 193
e 41 52
e 41 65
e 41 68
e 41 77
e 41 80
e 41 84
e 41 111
e 41 113
e 41 116
e 41 125
e 41 141
e 41 152
e 41 154
e 41 155
e 41 156
e 41 160
e 41 174
e 41 192
e 41 200
e 42 43
e 42 54
e 42 60
e 42 65
e 42 80
e 42 84
e 42 114
e 42 122
e 42 152
e 42 161
e 42 170
e 42 175
e 42 177
e 42 190
e 43 67
e 43 71
e 43 79
e 43 83
e 43 125
e 43 133
e 43 137
e 43 140
e 43 153
e 43 164
e 43 175
e 43 179
e 43 184
e 43 185
e 43 190
e 43 191
e 43 200
e 44 60
e 44 62
e 44 64
e 44 74
e 44 105
e 44 108
e 44 115
e 44 118
e 44 121
e 44 123
e 44 133
e 44 160
e 45 48
e 45 53
e 45 54
e 45 58
e 45 82
e 45 84
e 45 85
e 45 98
e 45 103
e 45 108
e 45 130
e 45 131
e 45 143
e 45 164
e 45 173
e 45 183
e 45 187
e 45 193
e 45 198
e 46 55
e 46 72
e 46 73
e 46 84
e 46 97
e 46 98
e 46 105
e 46 108
e 46 109
e 46 123
e 46 126
e 46 131
e 46 133
e 46 144
e 46 165
e 46 200
e 47 57
e 47 67
e 47 70
e 47 72
e 47 91
e 47 105
e 47 110
e 47 113
e 47 119
e 47 130
e 47 132
e 47 135
e 47 138
e 47 153
e 47 173
e 47 175
e 47 176
e 47 182
e 47 188
e 47 189
e 48 56
e 48 73
e 48 115
e 48 117
e 48 118
e 48 132
e 48 137
e 48 141
e 48 143
e 48 147
e 48 148
e 48 149
e 48 157
e 48 167
e 48 195
e 48 196
e 48 200
e 49 56
e 49 57
e 49 67
e 49 76
e 49 82
e 49 87
e 49 88
e 49 92
e 49 96
e 49 110
e 49 130
e 49 166
e 50 61
e 50 81
e 50 88
e 50 94
e 50 120
e 50 121
e 50 135
e 50 138
e 50 140
e 50 153
e 50 166
e 50 179
e 50 180
e 50 186
e 50 188
e 51 70
e 51 85
e 51 96
e 51 109
e 51 110
e 51 119
e 51 125
e 51 128
e 51 136
e 51 138
e 51 143
e 51 144
e 51 157
e 51 176
e 51 181
e 51 183
e 51 188
e 51 192
e 51 197
e 52 85
e 52 95
e 52 106
e 52 108
e 52 115
e 52 121
e 52 122
e 52 123
e 52 139
e 52 147
e 52 154
e 52 155
e 52 171
e 52 184
e 52 188
e 52 191
e 52 195
e 52 196
e 53 56
e 53 64
e 53 73
e 53 87
e 53 90
e 53 98
e 53 138
e 53 150
e 53 159
e 53 161
e 53 163
e 53 173
e 53 177
e 53 179
e 53 183
e 53 195
e 54 55
e 54 62
e 54 64
e 54 99
e 54 119
e 54 122
e 54 126
e 54 153
e 54 157
e 54 159
e 54 175
e 54 176
e 54 178
e 54 179
e 55 56
e 55 64
e 55 68
e 55 70
e 55 75
e 55 83
e 55 112
e 55 117
e 55 132
e 55 135
e 55 138
e 55 141
e 55 143
e 55 151
e 55 158
e 55 159
e 55 161
e 55 163
e 55 174
e 55 175
e 56 63
e 56 70
e 56 84
e 56 104
e 56 107
e 56 108
e 56 118
e 56 132
e 56 158
e 56 160
e 56 166
e 56 187
e 56 193
e 57 61
e 57 68
e 57 79
e 57 85
e 57 86
e 57 94
e 57 99
e 57 102
e 57 123
e 57 126
e 57 150
e 57 152
e 57 154
e 57 161
e 57 184
e 57 193
e 57 197
e 57 198
e 57 200
e 58 64
e 58 65
e 58 69
e 58 73
e 58 84
e 58 91
e 58 104
e 58 118
e 58 161
e 58 166
e 58 169
e 59 65
e 59 81
e 59 83
e 59 87
e 59 92
e 59 94
e 59 97
e 59 103
e 59 118
e 59 124
e 59 125
e 59 129
e 59 137
e 59 147
e 59 151
e 59 177
e 59 181
e 60 80
e 60 92
e 60 94
e 60 97
e 60 108
e 60 110
e 60 117
e 60 119
e 60 120
e 60 127
e 60 140
e 60 152
e 60 161
e 60 170
e 60 171
e 61 75
e 61 77
e 61 91
e 61 105
e 61 106
e 61 111
e 61 118
e 61 158
e 61 170
e 61 173
e 61 187
e 61 191
e 61 197
e 62 74
e 62 86
e 62 96
e 62 99
e 62 102
e 62 112
e 62 122
e 62 127
e 62 141
e 62 155
e 62 156
e 62 184
e 62 197
e 62 200
e 63 65
e 63 66
e 63 78
e 63 82
e 63 88
e 63 106
e 63 124
e 63 133
e 63 157
e 63 160
e 63 164
e 63 172
e 63 187
e 64 68
e 64 75
e 64 84
e 64 85
e 64 104
e 64 109
e 64 110
e 64 122
e 64 125
e 64 126
e 64 134
e 64 138
e 64 158
e 64 161
e 64 162
e 64 166
e 64 174
e 64 178
e 64 179
e 64 180
e 64 186
e 64 192
e 64 198
e 65 69
e 65 85
e 65 91
e 65 93
e 65 94
e 65 116
e 65 117
e 65 128
e 65 134
e 65 149
e 65 151
e 65 156
e 65 167
e 65 169
e 65 194
e 66 80
e 66 84
e 66 101
e 66 120
e 66 121
e 66 129
e 66 133
e 66 149
e 66 154
e 66 164
e 66 170
e 66 171
e 66 176
e 66 192
e 66 196
e 66 199
e 67 101
e 67 121
e 67 151
e 67 154
e 67 159
e 67 163
e 67 166
e 67 171
e 67 178
e 67 184
e 67 199
e 68 101
e 68 102
e 68 119
e 68 124
e 68 137
e 68 145
e 68 195
e 69 87
e 69 90
e 69 98
e 69 108
e 69 119
e 69 127
e 69 131
e 69 139
e 69 143
e 69 159
e 69 196
e 70 73
e 70 82
e 70 90
e 70 97
e 70 105
e 70 123
e 70 131
e 70 135
e 70 156
e 70 166
e 70 174
e 70 191
e 71 75
e 71 84
e 71 97
e 71 98
e 71 112
e 71 116
e 71 132
e 71 137
e 71 144
e 71 147
e 71 149
e 71 150
e 71 162
e 71 169
e 71 175
e 71 184
e 71 187
e 71 189
e 71 191
e 71 199
e 72 78
e 72 88
e 72 89
e 72 96
e 72 101
e 72 121
e 72 129
e 72 135
e 72 139
e 72 142
e 72 164
e 72 183
e 73 76
e 73 77
e 73 78
e 73 90
e 73 112
e 73 130
e 73 146
e 73 149
e 73 152
e 73 160
e 73 173
e 73 174
e 73 176
e 73 177
e 73 185
e 73 191
e 74 79
e 74 87
e 74 109
e 74 118
e 74 130
e 74 157
e 74 165
e 74 166
e 74 180
e 74 185
e 74 192
e 75 90
e 75 101
e 75 102
e 75 120
e 75 130
e 75 146
e 75 162
e 75 166
e 75 176
e 75 177
e 75 198
e 76 88
e 76 95
e 76 97
e 76 98
e 76 111
e 76 124
e 76 129
e 76 133
e 76 137
e 76 154
e 76 160
e 76 163
e 76 169
e 76 175
e 76 180
e 76 185
e 76 187
e 76 195
e 77 89
e 77 97
e 77 151
e 77 153
e 77 154
e 77 167
e 77 170
e 77 172
e 77 184
e 78 91
e 78 92
e 78 105
e 78 107
e 78 115
e 78 127
e 78 128
e 78 134
e 78 135
e 78 162
e 78 184
e 79 101
e 79 107
e 79 110
e 79 117
e 79 120
e 79 123
e 79 128
e 79 153
e 79 157
e 79 160
e 79 167
e 80 100
e 80 101
e 80 108
e 80 120
e 80 122
e 80 130
e 80 131
e 80 142
e 80 143
e 80 150
e 80 154
e 80 156
e 80 157
e 80 163
e 80 168
e 80 177
e 81 86
e 81 91
e 81 100
e 81 101
e 81 121
e 81 129
e 81 130
e 81 136
e 81 137
e 81 145
e 81 149
e 81 161
e 81 162
e 81 173
e 81 177
e 81 183
e 81 199
e 82 84
e 82 86
e 82 99
e 82 106
e 82 109
e 82 122
e 82 134
e 82 145
e 82 152
e 82 155
e 82 158
e 82 161
e 82 169
e 82 171
e 82 187
e 82 191
e 82 195
e 83 86
e 83 89
e 83 90
e 83 92
e 83 100
e 83 117
e 83 121
e 83 128
e 83 135
e 83 136
e 83 138
e 83 178
e 83 187
e 83 189
e 83 192
e 83 196
e 84 98
e 84 100
e 84 107
e 84 128
e 84 136
e 84 144
e 84 151
e 84 161
e 84 177
e 84 178
e 84 192
e 84 197
e 84 199
e 85 97
e 85 106
e 85 111
e 85 119
e 85 137
e 85 138
e 85 154
e 85 175
e 85 177
e 85 181
e 85 185
e 85 186
e 85 189
e 85 190
e 86 95
e 86 99
e 86 104
e 86 118
e 86 121
e 86 130
e 86 139
e 86 167
e 86 173
e 86 175
e 86 191
e 86 193
e 87 88
e 87 91
e 87 95
e 87 97
e 87 108
e 87 123
e 87 127
e 87 136
e 87 142
e 87 153
e 87 154
e 87 171
e 87 183
e 87 197
e 88 107
e 88 111
e 88 128
e 88 158
e 88 161
e 88 183
e 88 193
e 88 198
e 89 96
e 89 102
e 89 106
e 89 115
e 89 137
e 89 144
e 89 148
e 89 175
e 89 187
e 89 197
e 90 102
e 90 106
e 90 107
e 90 134
e 90 142
e 90 164
e 90 178
e 90 179
e 90 196
e 91 95
e 91 107
e 91 113
e 91 114
e 91 130
e 91 139
e 91 154
e 91 155
e 91 161
e 91 176
e 91 180
e 91 189
e 92 108
e 92 119
e 92 139
e 92 150
e 92 157
e 92 180
e 92 181
e 92 185
e 92 188
e 93 96
e 93 111
e 93 120
e 93 122
e 93 124
e 93 129
e 93 143
e 93 158
e 93 160
e 93 168
e 93 169
e 93 171
e 93 184
e 93 186
e 93 200
e 94 98
e 94 102
e 94 108
e 94 119
e 94 127
e 94 139
e 94 148
e 94 171
e 94 175
e 94 176
e 94 191
e 94 199
e 95 97
e 95 98
e 95 102
e 95 110
e 95 113
e 95 119
e 95 124
e 95 140
e 95 148
e 95 155
e 95 168
e 95 172
e 95 174
e 95 191
e 96 98
e 96 102
e 96 117
e 96 134
e 96 137
e 96 157
e 96 176
e 96 200
e 97 110
e 97 111
e 97 114
e 97 124
e 97 127
e 97 134
e 97 138
e 97 146
e 97 154
e 97 155
e 97 156
e 97 182
e 97 188
e 98 129
e 98 158
e 98 167
e 98 168
e 98 174
e 98 187
e 98 198
e 99 110
e 99 118
e 99 123
e 99 138
e 99 157
e 99 160
e 99 176
e 99 177
e 99 196
e 100 107
e 100 109
e 100 120
e 100 123
e 100 129
e 100 143
e 100 167
e 100 175
e 100 185
e 100 193
e 100 196
e 101 104
e 101 107
e 101 116
e 101 124
e 101 133
e 101 135
e 101 148
e 101 170
e 101 178
e 101 187
e 101 192
e 102 106
e 102 124
e 102 134
e 102 140
e 102 150
e 102 151
e 102 153
e 102 168
e 102 170
e 102 176
e 102 182
e 103 108
e 103 114
e 103 120
e 103 121
e 103 123
e 103 137
e 103 143
e 103 159
e 103 175
e 103 198
e 103 199
e 104 106
e 104 120
e 104 121
e 104 127
e 104 131
e 104 134
e 104 145
e 104 162
e 104 175
e 104 183
e 104 188
e 104 197
e 105 109
e 105 115
e 105 139
e 105 159
e 105 188
e 105 200
e 106 111
e 106 118
e 106 163
e 106 187
e 106 190
e 106 195
e 107 145
e 107 152
e 107 164
e 107 169
e 107 172
e 107 177
e 107 184
e 108 133
e 108 138
e 108 154
e 108 160
e 108 172
e 108 182
e 108 193
e 108 200
e 109 129
e 109 144
e 109 170
e 109 184
e 109 200
e 110 156
e 110 191
e 111 115
e 111 118
e 111 137
e 111 141
e 111 172
e 111 189
e 111 190
e 111 200
e 112 122
e 112 151
e 112 160
e 112 164
e 112 175
e 112 177
e 112 189
e 112 192
e 112 194
e 113 120
e 113 128
e 113 131
e 113 144
e 113 150
e 113 154
e 113 171
e 113 172
e 113 186
e 113 193
e 114 115
e 114 119
e 114 121
e 114 123
e 114 127
e 114 135
e 114 187
e 115 136
e 115 142
e 115 143
e 115 150
e 115 154
e 115 162
e 115 167
e 115 186
e 116 117
e 116 156
e 116 173
e 117 133
e 117 142
e 117 147
e 117 158
e 117 169
e 117 190
e 118 130
e 118 137
e 118 142
e 118 153
e 118 154
e 118 156
e 118 163
e 118 165
e 118 172
e 118 177
e 118 183
e 118 193
e 118 197
e 119 130
e 119 144
e 119 157
e 119 171
e 119 174
e 119 178
e 120 121
e 120 125
e 120 136
e 120 139
e 120 152
e 120 159
e 120 173
e 120 177
e 120 183
e 120 199
e 121 123
e 121 124
e 121 129
e 121 135
e 121 138
e 121 146
e 121 150
e 121 153
e 121 156
e 121 160
e 121 163
e 121 177
e 121 200
e 122 130
e 122 141
e 122 145
e 122 146
e 122 155
e 122 160
e 122 172
e 122 177
e 122 181
e 122 184
e 123 134
e 123 140
e 123 160
e 123 168
e 123 187
e 124 128
e 124 138
e 124 156
e 124 158
e 124 160
e 124 172
e 125 131
e 125 163
e 125 177
e 125 187
e 126 139
e 126 144
e 126 146
e 126 148
e 126 181
e 126 195
e 126 197
e 127 136
e 127 145
e 127 150
e 127 157
e 127 171
e 127 180
e 127 188
e 127 193
e 127 196
e 127 197
e 128 138
e 128 145
e 128 156
e 128 160
e 128 164
e 128 173
e 128 175
e 128 181
e 128 182
e 129 145
e 129 148
e 129 156
e 129 161
e 129 162
e 129 167
e 129 179
e 129 189
e 129 198
e 130 132
e 130 149
e 130 150
e 130 162
e 130 166
e 130 167
e 130 173
e 130 186
e 130 194
e 131 136
e 131 145
e 131 147
e 131 181
e 131 183
e 131 197
e 132 139
e 132 152
e 132 159
e 132 162
e 132 166
e 132 189
e 133 136
e 133 140
e 133 149
e 133 184
e 133 191
e 133 197
e 133 198
e 134 147
e 134 162
e 134 164
e 134 195
e 134 196
e 135 140
e 135 152
e 135 182
e 136 146
e 136 156
e 136 165
e 136 176
e 136 189
e 136 192
e 137 139
e 137 153
e 137 158
e 137 163
e 137 170
e 137 171
e 137 199
e 138 140
e 138 161
e 138 162
e 139 144
e 139 145
e 139 149
e 139 173
e 139 178
e 140 149
e 140 150
e 140 151
e 140 164
e 140 166
e 140 169
e 140 177
e 140 188
e 140 189
e 140 190
e 140 191
e 141 147
e 141 159
e 141 175
e 141 177
e 141 191
e 142 166
e 142 183
e 142 190
e 142 197
e 143 161
e 143 185
e 144 147
e 144 150
e 144 165
e 144 168
e 144 177
e 144 184
e 144 200
e 145 149
e 145 184
e 145 194
e 145 199
e 146 174
e 146 190
e 146 195
e 147 157
e 147 165
e 147 184
e 148 150
e 148 166
e 148 179
e 148 181
e 148 189
e 148 191
e 148 193
e 148 200
e 149 161
e 149 173
e 149 189
e 150 165
e 150 179
e 150 185
e 150 193
e 150 198
e 151 152
e 151 153
e 151 168
e 151 172
e 151 185
e 151 194
e 152 191
e 153 157
e 153 164
e 153 168
e 153 169
e 153 183
e 154 159
e 154 164
e 154 173
e 155 168
e 155 182
e 155 197
e 156 163
e 156 172
e 156 188
e 157 160
e 157 174
e 157 175
e 157 179
e 157 193
e 158 161
e 158 185
e 159 169
e 159 176
e 159 181
e 159 185
e 160 168
e 160 170
e 160 175
e 160 185
e 160 187
e 160 191
e 160 197
e 161 162
e 161 166
e 161 172
e 161 173
e 161 176
e 162 165
e 162 173
e 163 183
e 163 191
e 164 166
e 164 173
e 165 170
e 165 182
e 165 187
e 165 198
e 166 168
e 166 193
e 167 174
e 167 179
e 167 182
e 167 184
e 167 189
e 167 190
e 167 195
e 168 173
e 168 177
e 168 180
e 168 182
e 168 183
e 168 191
e 168 193
e 168 198
e 169 176
e 169 197
e 170 181
e 171 177
e 171 179
e 171 180
e 172 179
e 172 181
e 172 192
e 173 177
e 173 186
e 173 190
e 173 199
e 174 175
e 175 187
e 175 193
e 175 197
e 176 198
e 177 186
e 177 187
e 178 194
e 178 197
e 178 198
e 179 180
e 179 181
e 179 194
e 179 199
e 180 181
e 180 195
e 181 200
e 182 188
e 184 192
e 184 198
e 185 199
e 186 192
e 187 196
e 188 191
e 188 197
e 188 200
e 189 190
e 189 198
e 191 193
e 191 197
e 191 200
e 192 194
e 192 195
e 196 199
e 196 200
